PARAMETER_FILE = even/even_complete_graph_new/par/random137.par
PROBLEM_FILE = even/even_complete_graph_new/mat/random137.tsp
Successes/Runs = 0/10
Cost.min = 907, Cost.avg = 907.00, Cost.max = 907
Gap.min = 0.0000%, Gap.avg = 0.0000%, Gap.max = 0.0000%
Trials.min = 1000, Trials.avg = 1000.0, Trials.max = 1000
Time.min = 0.64 sec., Time.avg = 1.36 sec., Time.max = 2.59 sec.
Time.total = 13.73 sec.
请按任意键继续. . . 
